2051794
27,2,48,4,20,65,47,1,12,32,56,40,5,60,23,49,19,29,25,30,41,6,64,11,66,26,67,7,34,55,46,43,38,42,61,3,21,24,13,54,17,9,58,15,8,36,28,31,22,52,14,44,57,18,10,33,50,59,16,63,68,35,51,39,62,53,37,45